8302
12, 25, 4, 6, 5, 24, 48, 46, 44, 16, 29, 50, 20, 23, 30, 2, 7, 42, 21, 31, 18, 17, 3, 41, 8, 9, 10, 19, 45, 32, 22, 1, 49, 36, 35, 34, 39, 37, 40, 38, 15, 43, 33, 28, 27, 26, 47, 13, 14, 52, 11, 51
